
Gurobi 12.0.2 (win64) logging started Sun Jun  8 11:32:07 2025

Set parameter LogFile to value "C:\Ioana\_uni\honours\slp\algorithm\Main_files\results\others\prox_tubules_new_model\Task_001_Sample005_irr_gurobi.log"
Gurobi Optimizer version 12.0.2 build v12.0.2rc0 (win64 - Windows 11.0 (26100.2))

CPU model: Intel(R) Core(TM) Ultra 5 125H, instruction set [SSE2|AVX|AVX2]
Thread count: 14 physical cores, 18 logical processors, using up to 18 threads

Non-default parameters:
TimeLimit  2200

Optimize a model with 47226 rows, 34496 columns and 146683 nonzeros
Model fingerprint: 0x491d345a
Variable types: 17251 continuous, 17245 integer (17245 binary)
Coefficient statistics:
  Matrix range     [1e-04, 8e+04]
  Objective range  [5e-05, 3e+00]
  Bounds range     [1e+00, 1e+03]
  RHS range        [1e+00, 1e+00]
Presolve removed 30778 rows and 21543 columns
Presolve time: 0.31s
Presolved: 16448 rows, 12953 columns, 54670 nonzeros
Variable types: 6410 continuous, 6543 integer (6543 binary)

Root relaxation: objective 9.976222e-05, 4126 iterations, 0.28 seconds (0.61 work units)

    Nodes    |    Current Node    |     Objective Bounds      |     Work
 Expl Unexpl |  Obj  Depth IntInf | Incumbent    BestBd   Gap | It/Node Time

     0     0    0.00010    0    7          -    0.00010      -     -    0s
H    0     0                       0.0471538    0.00010   100%     -    0s
     0     0    0.00324    0   15    0.04715    0.00324  93.1%     -    0s
     0     0    0.03706    0    2    0.04715    0.03706  21.4%     -    0s
     0     0     cutoff    0         0.04715    0.04715  0.00%     -    0s

Cutting planes:
  Gomory: 1
  Cover: 2
  MIR: 2
  Flow cover: 5
  Relax-and-lift: 4

Explored 1 nodes (4239 simplex iterations) in 0.88 seconds (1.20 work units)
Thread count was 18 (of 18 available processors)

Solution count 1: 0.0471538 

Optimal solution found (tolerance 1.00e-04)
Best objective 4.715383387363e-02, best bound 4.715383387363e-02, gap 0.0000%
